%TASK = {A,B,C, D,E,F,G,H,I,J};
d=[10,10,25,25,10,20,15,20,10,20];
n=10;
C=2;
m=14;
R=3; 
performance=[1,0,0];
performance2=[1,0,1];
Ccpu=[1,0,0,0,0,0,0,0,0,0];
Ccpu2=[0,1,0,0,0,0,0,0,0,0];
next=[|1,2          
     |1,6
     |1,7       
     |1,9
     |2,4     
     |2,3
     |4,5     
     |3,5
     |6,8  
     |7,8
     |7,10         
     |9,10
     |8,4       
     |10,3  |];
   

   
 
          
